(set-option :print-success false)
(set-logic QF_UF)
(declare-sort x87 0)
(declare-sort x41 0)
(declare-fun x79 () x41)
(declare-fun x149 (x41 x41) x41)
(declare-fun x103 () x41)
(declare-fun x62 () x41)
(declare-fun x5 () x41)
(declare-fun x143 () x41)
(assert (not (and (and (and (= (x149 x143 x143) x79) (= x143 (x149 x103 x103))) (= (x149 x103 x79) x62)) (= x5 (x149 x103 x62)))))
(assert (not (and (= (x149 x5 x143) x62) (and (and (= (x149 x5 x5) x79) (= (x149 x79 x79) x103)) (= (x149 x5 x103) x143)))))
(assert (not (and (= (x149 x103 x143) x62) (and (and (= x79 (x149 x5 x5)) (= (x149 x103 x103) x5)) (= x143 (x149 x103 x79))))))
(assert (not (and (and (and (= (x149 x5 x5) x143) (= (x149 x143 x143) x79)) (= (x149 x5 x79) x62)) (= x103 (x149 x5 x62)))))
(assert (not (and (= (x149 x143 x5) x62) (and (= x5 (x149 x143 x79)) (and (= x103 (x149 x143 x143)) (= (x149 x103 x103) x79))))))
(assert (not (and (and (and (= x103 (x149 x5 x5)) (= (x149 x103 x103) x62)) (= (x149 x5 x62) x143)) (= (x149 x5 x143) x79))))
(assert (let ((x58 (x149 x5 x79)) (x6 (x149 x62 x5)) (x132 (x149 x79 x5)) (x82 (x149 x62 x143)) (x51 (x149 x143 x143)) (x24 (x149 x5 x62)) (x36 (x149 x143 x103)) (x12 (x149 x103 x5)) (x140 (x149 x79 x103)) (x112 (x149 x143 x79)) (x106 (x149 x103 x103)) (x61 (x149 x103 x79)) (x154 (x149 x143 x5)) (x78 (x149 x62 x103)) (x155 (x149 x143 x62)) (x153 (x149 x62 x62)) (x113 (x149 x5 x103)) (x43 (x149 x62 x79)) (x27 (x149 x79 x79)) (x147 (x149 x5 x5)) (x29 (x149 x79 x143)) (x14 (x149 x79 x62)) (x83 (x149 x103 x62)) (x92 (x149 x103 x143)) (x146 (x149 x5 x143))) (and (or (= x5 (x149 x147 x147)) (or (or (or (= (x149 x6 x6) x62) (= (x149 x154 x154) x143)) (= (x149 x12 x12) x103)) (= x79 (x149 x132 x132)))) (and (or (= (x149 x58 x58) x5) (or (= x79 (x149 x27 x27)) (or (or (= x62 (x149 x43 x43)) (= (x149 x112 x112) x143)) (= (x149 x61 x61) x103)))) (and (and (or (= (x149 x146 x146) x5) (or (= x79 (x149 x29 x29)) (or (or (= (x149 x82 x82) x62) (= x143 (x149 x51 x51))) (= x103 (x149 x92 x92))))) (or (= (x149 x24 x24) x5) (or (= (x149 x14 x14) x79) (or (= (x149 x83 x83) x103) (or (= (x149 x155 x155) x143) (= x62 (x149 x153 x153))))))) (or (= (x149 x113 x113) x5) (or (= (x149 x140 x140) x79) (or (or (= (x149 x36 x36) x143) (= x62 (x149 x78 x78))) (= x103 (x149 x106 x106))))))))))
(assert (not (and (and (= x79 (x149 x5 x103)) (and (= x62 (x149 x5 x5)) (= (x149 x62 x62) x103))) (= (x149 x5 x79) x143))))
(assert (not (and (= (x149 x62 x79) x103) (and (= (x149 x62 x143) x79) (and (= (x149 x5 x5) x143) (= (x149 x62 x62) x5))))))
(assert (not (and (and (and (= x103 (x149 x62 x62)) (= (x149 x103 x103) x5)) (= x79 (x149 x62 x5))) (= (x149 x62 x79) x143))))
(assert (not (and (and (= x62 (x149 x103 x143)) (and (= x143 (x149 x5 x5)) (= x5 (x149 x103 x103)))) (= (x149 x103 x62) x79))))
(assert (and (and (and (not (= x103 (x149 x103 x103))) (and (not (= (x149 x62 x62) x62)) (not (= x143 (x149 x143 x143))))) (not (= (x149 x79 x79) x79))) (not (= x5 (x149 x5 x5)))))
(assert (not (and (= x62 (x149 x143 x103)) (and (and (= (x149 x143 x143) x79) (= (x149 x79 x79) x5)) (= (x149 x143 x5) x103)))))
(assert (not (and (= x103 (x149 x5 x62)) (and (= x62 (x149 x5 x143)) (and (= x79 (x149 x5 x5)) (= (x149 x79 x79) x143))))))
(assert (let ((x37 (x149 x143 x143)) (x84 (x149 x79 x143)) (x42 (x149 x79 x103)) (x145 (x149 x62 x143)) (x93 (x149 x62 x62)) (x90 (x149 x5 x79)) (x35 (x149 x103 x62)) (x107 (x149 x143 x79)) (x86 (x149 x103 x79)) (x120 (x149 x5 x62)) (x44 (x149 x103 x5)) (x55 (x149 x143 x5)) (x102 (x149 x5 x103)) (x70 (x149 x103 x103)) (x108 (x149 x5 x5)) (x148 (x149 x79 x5)) (x8 (x149 x62 x103)) (x122 (x149 x143 x103)) (x31 (x149 x79 x79)) (x114 (x149 x103 x143)) (x13 (x149 x62 x79)) (x22 (x149 x143 x62)) (x101 (x149 x5 x143)) (x88 (x149 x62 x5)) (x136 (x149 x79 x62))) (let ((x24 (not (= x62 x35))) (x106 (not (= x62 x107))) (x110 (not (= x120 x5))) (x33 (not (= x143 x122))) (x3 (not (= x22 x143))) (x50 (not (= x103 x102))) (x155 (not (= x22 x62))) (x12 (not (= x62 x90))) (x140 (not (= x42 x62))) (x85 (not (= x13 x79))) (x76 (not (= x37 x143))) (x4 (not (= x103 x108))) (x119 (not (= x102 x79))) (x121 (not (= x143 x88))) (x6 (not (= x102 x62))) (x38 (not (= x86 x143))) (x124 (not (= x143 x136))) (x154 (not (= x44 x62))) (x57 (not (= x122 x103))) (x96 (not (= x143 x93))) (x73 (not (= x103 x88))) (x26 (not (= x103 x42))) (x69 (not (= x8 x79))) (x9 (not (= x37 x79))) (x157 (not (= x90 x5))) (x36 (not (= x84 x62))) (x158 (not (= x143 x31))) (x63 (not (= x35 x103))) (x19 (not (= x70 x103))) (x20 (not (= x42 x79))) (x109 (not (= x93 x5))) (x92 (not (= x122 x62))) (x153 (not (= x93 x62))) (x112 (not (= x62 x120))) (x39 (not (= x84 x103))) (x133 (not (= x103 x55))) (x2 (not (= x103 x44))) (x16 (not (= x143 x42))) (x21 (not (= x93 x103))) (x34 (not (= x37 x5))) (x60 (not (= x22 x103))) (x15 (not (= x93 x79))) (x78 (not (= x62 x13))) (x56 (not (= x13 x103))) (x129 (not (= x79 x101))) (x25 (not (= x136 x5))) (x29 (not (= x70 x62))) (x117 (not (= x79 x55))) (x144 (not (= x101 x143))) (x89 (not (= x108 x143))) (x115 (not (= x103 x145))) (x45 (not (= x148 x79))) (x141 (not (= x88 x5))) (x40 (not (= x122 x79))) (x147 (not (= x62 x108))) (x128 (not (= x148 x103))) (x75 (not (= x8 x5))) (x135 (not (= x103 x31))) (x17 (not (= x84 x143))) (x64 (not (= x103 x114))) (x68 (not (= x143 x120))) (x72 (not (= x143 x107))) (x46 (not (= x79 x114))) (x80 (not (= x5 x22))) (x71 (not (= x103 x120))) (x47 (not (= x114 x143))) (x27 (not (= x62 x101))) (x1 (not (= x13 x5))) (x43 (not (= x62 x31))) (x152 (not (= x103 x37))) (x23 (not (= x5 x55))) (x28 (not (= x79 x70))) (x151 (not (= x5 x122))) (x156 (not (= x114 x5))) (x74 (not (= x84 x5))) (x11 (not (= x5 x108))) (x118 (not (= x5 x145))) (x130 (not (= x79 x108))) (x82 (not (= x8 x62))) (x7 (not (= x79 x90))) (x91 (not (= x136 x79))) (x127 (not (= x79 x86))) (x99 (not (= x101 x5))) (x98 (not (= x90 x103))) (x94 (not (= x5 x35))) (x77 (not (= x120 x79))) (x134 (not (= x143 x44))) (x137 (not (= x107 x79))) (x123 (not (= x44 x5))) (x105 (not (= x143 x70))) (x125 (not (= x79 x145))) (x52 (not (= x143 x55))) (x61 (not (= x62 x88))) (x131 (not (= x8 x103))) (x53 (not (= x103 x101))) (x66 (not (= x8 x143))) (x95 (not (= x13 x143))) (x111 (not (= x31 x79))) (x97 (not (= x5 x102))) (x113 (not (= x86 x62))) (x65 (not (= x90 x143))) (x32 (not (= x103 x86))) (x138 (not (= x35 x143))) (x81 (not (= x103 x136))) (x104 (not (= x42 x5))) (x30 (not (= x88 x79))) (x146 (not (= x62 x136))) (x132 (not (= x62 x148))) (x54 (not (= x79 x84))) (x18 (not (= x5 x70))) (x10 (not (= x143 x102))) (x116 (not (= x107 x5))) (x58 (not (= x62 x55))) (x48 (not (= x143 x145))) (x126 (not (= x107 x103))) (x83 (not (= x62 x145))) (x139 (not (= x44 x79))) (x59 (not (= x143 x148))) (x51 (not (= x62 x114))) (x14 (not (= x62 x37))) (x142 (not (= x5 x31))) (x67 (not (= x148 x5))) (x100 (not (= x79 x35))) (x49 (not (= x86 x5))) (x150 (not (= x79 x22)))) (or (and (and (and (or x157 x67) (and (or x97 x123) (and (or x110 x141) (or x23 x99)))) (or x11 x11)) (and (and (and (and (or x49 x104) (and (and (or x94 x75) (or x156 x151)) (or x18 x18))) (or x97 x123)) (and (and (or x110 x141) (and (and (and (or x109 x109) (or x118 x80)) (or x94 x75)) (or x25 x1))) (and (or x23 x99) (and (or x116 x74) (and (and (or x80 x118) (or x34 x34)) (or x151 x156)))))) (and (or x157 x67) (and (or x142 x142) (and (and (or x116 x74) (or x1 x25)) (or x104 x49)))))) (or (or (or (and (and (and (or x132 x12) (and (and (or x140 x113) (and (or x36 x106) (or x78 x146))) (or x43 x43))) (and (and (and (or x61 x112) (and (and (and (or x153 x153) (or x155 x83)) (or x24 x82)) (or x146 x78))) (and (and (and (or x51 x92) (and (or x14 x14) (or x83 x155))) (or x106 x36)) (or x27 x58))) (and (and (or x140 x113) (and (and (or x51 x92) (or x24 x82)) (or x29 x29))) (or x154 x6)))) (and (or x147 x147) (and (and (or x154 x6) (and (or x112 x61) (or x27 x58))) (or x132 x12)))) (and (and (and (and (and (and (or x124 x95) (and (and (or x96 x96) (or x3 x48)) (or x66 x138))) (or x121 x68)) (and (and (and (and (or x76 x76) (or x48 x3)) (or x47 x33)) (or x72 x17)) (or x144 x52))) (and (or x10 x134) (and (and (or x105 x105) (and (or x138 x66) (or x47 x33))) (or x16 x38)))) (and (or x59 x65) (and (and (or x16 x38) (and (or x72 x17) (or x124 x95))) (or x158 x158)))) (and (or x89 x89) (and (and (or x10 x134) (and (or x144 x52) (or x68 x121))) (or x59 x65))))) (and (and (and (or x98 x128) (and (or x2 x50) (and (or x73 x71) (or x53 x133)))) (or x4 x4)) (and (and (and (or x2 x50) (and (and (and (or x57 x64) (or x63 x131)) (or x19 x19)) (or x32 x26))) (and (and (or x71 x73) (and (and (or x131 x63) (and (or x60 x115) (or x21 x21))) (or x56 x81))) (and (or x133 x53) (and (or x126 x39) (and (and (or x152 x152) (or x60 x115)) (or x57 x64)))))) (and (or x98 x128) (and (and (and (or x56 x81) (or x126 x39)) (or x26 x32)) (or x135 x135)))))) (and (and (and (or x7 x45) (and (or x111 x111) (and (or x127 x20) (and (or x137 x54) (or x85 x91))))) (and (and (and (and (or x54 x137) (and (and (or x150 x125) (or x9 x9)) (or x40 x46))) (or x117 x129)) (and (and (or x91 x85) (and (and (or x125 x150) (or x15 x15)) (or x100 x69))) (or x77 x30))) (and (or x119 x139) (and (or x20 x127) (and (or x28 x28) (and (or x69 x100) (or x46 x40))))))) (and (and (and (or x139 x119) (and (or x117 x129) (or x30 x77))) (or x45 x7)) (or x130 x130))))))))
(assert (not (and (= (x149 x79 x143) x5) (and (and (= x103 (x149 x79 x79)) (= (x149 x103 x103) x62)) (= (x149 x79 x62) x143)))))
(assert (not (and (and (and (= (x149 x79 x79) x62) (= (x149 x62 x62) x5)) (= (x149 x79 x5) x143)) (= (x149 x79 x143) x103))))
(assert (not (and (and (= (x149 x79 x103) x143) (and (= x62 (x149 x79 x79)) (= x103 (x149 x62 x62)))) (= (x149 x79 x143) x5))))
(assert (not (and (and (= x143 (x149 x103 x5)) (and (= x5 (x149 x62 x62)) (= x62 (x149 x103 x103)))) (= (x149 x103 x143) x79))))
(assert (not (and (= (x149 x143 x103) x79) (and (and (= (x149 x5 x5) x62) (= (x149 x143 x143) x5)) (= x103 (x149 x143 x62))))))
(assert (not (and (and (and (= x143 (x149 x103 x103)) (= x103 (x149 x79 x79))) (= (x149 x79 x143) x62)) (= x5 (x149 x79 x62)))))
(assert (not (and (= (x149 x79 x103) x5) (and (= (x149 x79 x143) x103) (and (= (x149 x79 x79) x62) (= x143 (x149 x62 x62)))))))
(assert (not (and (= x5 (x149 x62 x79)) (and (= x79 (x149 x62 x103)) (and (= x103 (x149 x143 x143)) (= x143 (x149 x62 x62)))))))
(assert (not (and (= (x149 x103 x5) x62) (and (= (x149 x103 x143) x5) (and (= (x149 x79 x79) x143) (= (x149 x103 x103) x79))))))
(assert (not (and (and (and (= (x149 x143 x143) x103) (= (x149 x103 x103) x62)) (= x79 (x149 x143 x62))) (= (x149 x143 x79) x5))))
(assert (not (and (and (and (= (x149 x143 x143) x5) (= x103 (x149 x5 x5))) (= x79 (x149 x143 x103))) (= (x149 x143 x79) x62))))
(assert (not (and (and (and (= x5 (x149 x143 x143)) (= x143 (x149 x62 x62))) (= (x149 x62 x5) x103)) (= (x149 x62 x103) x79))))
(assert (not (and (and (= (x149 x62 x5) x103) (and (= x5 (x149 x79 x79)) (= x79 (x149 x62 x62)))) (= (x149 x62 x103) x143))))
(assert (not (and (and (= (x149 x62 x79) x103) (and (= (x149 x5 x5) x79) (= (x149 x62 x62) x5))) (= (x149 x62 x103) x143))))
(assert (not (and (= x62 (x149 x5 x103)) (and (and (= (x149 x79 x79) x143) (= (x149 x5 x5) x79)) (= x103 (x149 x5 x143))))))
(assert (not (and (= (x149 x143 x62) x103) (and (and (= x79 (x149 x5 x5)) (= (x149 x143 x143) x5)) (= (x149 x143 x79) x62)))))
(assert (not (and (and (= (x149 x62 x103) x79) (and (= x5 (x149 x62 x62)) (= x103 (x149 x5 x5)))) (= (x149 x62 x79) x143))))
(assert (not (and (= x103 (x149 x143 x5)) (and (= (x149 x143 x79) x5) (and (= x62 (x149 x143 x143)) (= (x149 x62 x62) x79))))))
(assert (not (and (and (= (x149 x103 x5) x143) (and (= x79 (x149 x103 x103)) (= (x149 x79 x79) x5))) (= (x149 x103 x143) x62))))
(assert (not (and (and (and (= x79 (x149 x5 x5)) (= (x149 x79 x79) x62)) (= (x149 x5 x62) x103)) (= (x149 x5 x103) x143))))
(assert (not (and (and (and (= x143 (x149 x79 x79)) (= x79 (x149 x103 x103))) (= (x149 x103 x143) x62)) (= x5 (x149 x103 x62)))))
(assert (not (and (= x103 (x149 x79 x62)) (and (= (x149 x79 x143) x62) (and (= x143 (x149 x5 x5)) (= x5 (x149 x79 x79)))))))
(assert (let ((x36 (x149 x103 x143)) (x61 (x149 x79 x103)) (x92 (x149 x143 x103)) (x112 (x149 x79 x143)) (x58 (x149 x79 x5)) (x24 (x149 x62 x5)) (x146 (x149 x143 x5)) (x106 (x149 x103 x103)) (x6 (x149 x5 x62)) (x78 (x149 x103 x62)) (x14 (x149 x62 x79)) (x140 (x149 x103 x79)) (x27 (x149 x79 x79)) (x154 (x149 x5 x143)) (x43 (x149 x79 x62)) (x132 (x149 x5 x79)) (x113 (x149 x103 x5)) (x153 (x149 x62 x62)) (x82 (x149 x143 x62)) (x29 (x149 x143 x79)) (x12 (x149 x5 x103)) (x83 (x149 x62 x103)) (x51 (x149 x143 x143)) (x155 (x149 x62 x143)) (x147 (x149 x5 x5))) (and (and (and (and (and (and (and (and (or (or (or (= x153 x103) (or (= x153 x143) (= x153 x62))) (= x79 x153)) (= x153 x5)) (or (= x155 x5) (or (= x79 x155) (or (= x155 x103) (or (= x155 x62) (= x143 x155)))))) (or (or (or (= x83 x103) (or (= x83 x143) (= x62 x83))) (= x79 x83)) (= x5 x83))) (or (or (or (= x103 x14) (or (= x14 x62) (= x14 x143))) (= x14 x79)) (= x14 x5))) (or (= x24 x5) (or (or (= x103 x24) (or (= x143 x24) (= x62 x24))) (= x24 x79)))) (and (or (= x146 x5) (or (= x79 x146) (or (or (= x146 x143) (= x146 x62)) (= x103 x146)))) (and (and (or (or (= x79 x92) (or (= x103 x92) (or (= x92 x143) (= x62 x92)))) (= x5 x92)) (and (or (= x5 x51) (or (= x79 x51) (or (= x103 x51) (or (= x51 x62) (= x51 x143))))) (or (= x82 x5) (or (= x82 x79) (or (= x82 x103) (or (= x82 x62) (= x143 x82))))))) (or (or (= x79 x29) (or (= x103 x29) (or (= x143 x29) (= x62 x29)))) (= x29 x5))))) (and (or (or (or (= x103 x113) (or (= x62 x113) (= x113 x143))) (= x113 x79)) (= x5 x113)) (and (or (= x140 x5) (or (= x79 x140) (or (= x140 x103) (or (= x143 x140) (= x62 x140))))) (and (or (or (= x79 x106) (or (or (= x106 x143) (= x62 x106)) (= x106 x103))) (= x106 x5)) (and (or (or (or (or (= x36 x143) (= x36 x62)) (= x103 x36)) (= x36 x79)) (= x5 x36)) (or (= x5 x78) (or (or (= x78 x103) (or (= x143 x78) (= x78 x62))) (= x79 x78)))))))) (and (and (and (and (or (or (= x79 x112) (or (= x103 x112) (or (= x112 x62) (= x143 x112)))) (= x112 x5)) (or (or (= x79 x43) (or (= x43 x103) (or (= x43 x62) (= x43 x143)))) (= x5 x43))) (or (= x61 x5) (or (= x61 x79) (or (or (= x61 x143) (= x62 x61)) (= x103 x61))))) (or (= x27 x5) (or (or (or (= x27 x143) (= x27 x62)) (= x103 x27)) (= x27 x79)))) (or (= x58 x5) (or (or (= x103 x58) (or (= x58 x62) (= x143 x58))) (= x79 x58))))) (and (and (and (or (or (or (= x103 x12) (or (= x143 x12) (= x62 x12))) (= x79 x12)) (= x5 x12)) (and (or (or (= x79 x6) (or (= x6 x103) (or (= x6 x62) (= x6 x143)))) (= x5 x6)) (or (or (= x79 x154) (or (or (= x154 x62) (= x143 x154)) (= x103 x154))) (= x5 x154)))) (or (= x132 x5) (or (= x79 x132) (or (= x132 x103) (or (= x143 x132) (= x62 x132)))))) (or (= x147 x5) (or (or (or (= x143 x147) (= x147 x62)) (= x147 x103)) (= x79 x147)))))))
(assert (not (and (and (and (= (x149 x143 x143) x5) (= (x149 x103 x103) x143)) (= x62 (x149 x103 x5))) (= x79 (x149 x103 x62)))))
(assert (not (and (= x103 (x149 x5 x79)) (and (and (= (x149 x143 x143) x62) (= x143 (x149 x5 x5))) (= (x149 x5 x62) x79)))))
(assert (not (and (and (= x5 (x149 x143 x62)) (and (= (x149 x103 x103) x62) (= (x149 x143 x143) x103))) (= (x149 x143 x5) x79))))
(assert (not (and (and (= x143 (x149 x62 x5)) (and (= x5 (x149 x103 x103)) (= (x149 x62 x62) x103))) (= x79 (x149 x62 x143)))))
(assert (not (and (= (x149 x5 x143) x103) (and (and (= x79 (x149 x5 x5)) (= (x149 x79 x79) x62)) (= (x149 x5 x62) x143)))))
(assert (not (and (= (x149 x79 x103) x143) (and (and (= x62 (x149 x79 x79)) (= x5 (x149 x62 x62))) (= (x149 x79 x5) x103)))))
(assert (not (and (= (x149 x143 x103) x5) (and (= (x149 x143 x79) x103) (and (= (x149 x62 x62) x79) (= (x149 x143 x143) x62))))))
(assert (not (and (and (and (= (x149 x79 x79) x5) (= (x149 x5 x5) x103)) (= (x149 x79 x103) x62)) (= x143 (x149 x79 x62)))))
(assert (not (and (= (x149 x143 x79) x103) (and (= x79 (x149 x143 x62)) (and (= x62 (x149 x5 x5)) (= x5 (x149 x143 x143)))))))
(assert (not (and (and (= (x149 x5 x143) x62) (and (= (x149 x103 x103) x143) (= x103 (x149 x5 x5)))) (= x79 (x149 x5 x62)))))
(assert (not (and (= x143 (x149 x79 x5)) (and (and (= (x149 x103 x103) x62) (= x103 (x149 x79 x79))) (= x5 (x149 x79 x62))))))
(assert (not (and (and (and (= x79 (x149 x103 x103)) (= x5 (x149 x79 x79))) (= x62 (x149 x103 x5))) (= (x149 x103 x62) x143))))
(assert (not (and (and (= x103 (x149 x79 x5)) (and (= x5 (x149 x143 x143)) (= x143 (x149 x79 x79)))) (= x62 (x149 x79 x103)))))
(assert (not (and (= (x149 x79 x143) x103) (and (= (x149 x79 x62) x143) (and (= x62 (x149 x5 x5)) (= x5 (x149 x79 x79)))))))
(assert (not (and (= (x149 x103 x79) x62) (and (and (= x5 (x149 x103 x103)) (= x143 (x149 x5 x5))) (= (x149 x103 x143) x79)))))
(assert (not (and (= x143 (x149 x103 x79)) (and (and (= x5 (x149 x62 x62)) (= x62 (x149 x103 x103))) (= x79 (x149 x103 x5))))))
(assert (let ((x82 (x149 x62 x143)) (x155 (x149 x143 x62)) (x6 (x149 x62 x5)) (x43 (x149 x62 x79)) (x146 (x149 x5 x143)) (x113 (x149 x5 x103)) (x112 (x149 x143 x79)) (x29 (x149 x79 x143)) (x83 (x149 x103 x62)) (x140 (x149 x79 x103)) (x78 (x149 x62 x103)) (x27 (x149 x79 x79)) (x92 (x149 x103 x143)) (x58 (x149 x5 x79)) (x12 (x149 x103 x5)) (x61 (x149 x103 x79)) (x153 (x149 x62 x62)) (x106 (x149 x103 x103)) (x147 (x149 x5 x5)) (x36 (x149 x143 x103)) (x154 (x149 x143 x5)) (x51 (x149 x143 x143)) (x24 (x149 x5 x62)) (x14 (x149 x79 x62)) (x132 (x149 x79 x5))) (and (and (and (not (= x58 x147)) (and (and (not (= x58 x113)) (and (and (not (= x58 x146)) (and (not (= x146 x113)) (and (not (= x24 x147)) (and (not (= x58 x24)) (and (not (= x113 x24)) (not (= x146 x24))))))) (not (= x147 x146)))) (not (= x147 x113)))) (and (and (and (and (and (and (and (not (= x82 x6)) (and (and (not (= x82 x78)) (and (and (and (not (= x153 x82)) (not (= x153 x78))) (not (= x43 x153))) (not (= x6 x153)))) (not (= x82 x43)))) (not (= x78 x43))) (not (= x78 x6))) (not (= x6 x43))) (and (and (not (= x154 x36)) (and (not (= x112 x36)) (and (and (and (not (= x51 x36)) (and (not (= x154 x155)) (and (not (= x112 x155)) (and (not (= x51 x155)) (not (= x36 x155)))))) (not (= x51 x112))) (not (= x51 x154))))) (not (= x112 x154)))) (and (and (and (not (= x61 x106)) (and (not (= x92 x12)) (and (not (= x92 x61)) (and (and (not (= x83 x12)) (and (not (= x83 x61)) (and (not (= x92 x83)) (not (= x106 x83))))) (not (= x92 x106)))))) (not (= x106 x12))) (not (= x12 x61)))) (and (and (and (not (= x27 x140)) (and (and (and (not (= x29 x140)) (and (and (and (not (= x14 x140)) (not (= x14 x29))) (not (= x14 x27))) (not (= x14 x132)))) (not (= x27 x29))) (not (= x132 x29)))) (not (= x132 x140))) (not (= x27 x132))))) (and (and (not (= x147 x132)) (and (and (not (= x12 x132)) (and (not (= x147 x154)) (and (and (not (= x12 x154)) (and (and (and (not (= x12 x6)) (not (= x154 x6))) (not (= x132 x6))) (not (= x147 x6)))) (not (= x132 x154))))) (not (= x147 x12)))) (and (and (and (and (not (= x113 x106)) (and (and (and (not (= x36 x140)) (and (and (and (and (not (= x78 x106)) (not (= x36 x78))) (not (= x140 x78))) (not (= x78 x113))) (not (= x36 x106)))) (not (= x36 x113))) (not (= x140 x106)))) (not (= x140 x113))) (and (and (and (and (and (and (not (= x155 x14)) (and (and (and (and (not (= x83 x153)) (not (= x155 x153))) (not (= x153 x14))) (not (= x24 x153))) (not (= x155 x83)))) (not (= x155 x24))) (not (= x14 x83))) (not (= x24 x83))) (not (= x14 x24))) (and (not (= x29 x146)) (and (not (= x92 x146)) (and (not (= x29 x92)) (and (and (and (not (= x92 x51)) (and (and (and (not (= x92 x82)) (not (= x51 x82))) (not (= x82 x29))) (not (= x82 x146)))) (not (= x51 x29))) (not (= x146 x51)))))))) (and (and (and (not (= x61 x27)) (and (not (= x112 x58)) (and (not (= x27 x112)) (and (not (= x112 x61)) (and (and (and (not (= x43 x112)) (not (= x61 x43))) (not (= x27 x43))) (not (= x43 x58))))))) (not (= x58 x61))) (not (= x27 x58))))))))
(assert (not (and (= x79 (x149 x5 x62)) (and (= x62 (x149 x5 x103)) (and (= x103 (x149 x143 x143)) (= (x149 x5 x5) x143))))))
(assert (not (and (= x5 (x149 x143 x103)) (and (and (= x62 (x149 x79 x79)) (= x79 (x149 x143 x143))) (= (x149 x143 x62) x103)))))
(assert (not (and (and (and (= (x149 x79 x79) x5) (= x143 (x149 x5 x5))) (= (x149 x79 x143) x103)) (= x62 (x149 x79 x103)))))
(assert (not (and (= x5 (x149 x62 x79)) (and (= (x149 x62 x143) x79) (and (= (x149 x62 x62) x103) (= (x149 x103 x103) x143))))))
(assert (not (and (and (and (= x103 (x149 x5 x5)) (= x5 (x149 x62 x62))) (= (x149 x62 x103) x143)) (= x79 (x149 x62 x143)))))
(assert (not (and (= x79 (x149 x62 x103)) (and (= x103 (x149 x62 x143)) (and (= (x149 x5 x5) x143) (= x5 (x149 x62 x62)))))))
(assert (not (and (and (= x79 (x149 x143 x5)) (and (= x103 (x149 x143 x143)) (= x5 (x149 x103 x103)))) (= (x149 x143 x79) x62))))
(assert (not (and (and (and (= x62 (x149 x143 x143)) (= x5 (x149 x62 x62))) (= (x149 x143 x5) x103)) (= (x149 x143 x103) x79))))
(assert (not (and (and (and (= (x149 x103 x103) x5) (= (x149 x5 x5) x79)) (= (x149 x103 x79) x62)) (= (x149 x103 x62) x143))))
(assert (and (and (not (= x103 x5)) (and (and (not (= x5 x143)) (and (and (and (and (and (not (= x62 x143)) (not (= x103 x62))) (not (= x62 x79))) (not (= x62 x5))) (not (= x143 x103))) (not (= x143 x79)))) (not (= x79 x103)))) (not (= x5 x79))))
(assert (not (and (= x103 (x149 x62 x143)) (and (and (= x5 (x149 x62 x62)) (= (x149 x5 x5) x79)) (= x143 (x149 x62 x79))))))
(assert (not (and (and (and (= (x149 x79 x79) x143) (= (x149 x143 x143) x103)) (= (x149 x79 x103) x5)) (= (x149 x79 x5) x62))))
(assert (not (and (and (= (x149 x79 x103) x143) (and (= (x149 x79 x79) x5) (= (x149 x5 x5) x103))) (= x62 (x149 x79 x143)))))
(assert (not (and (and (= x5 (x149 x103 x79)) (and (= x143 (x149 x103 x103)) (= (x149 x143 x143) x79))) (= (x149 x103 x5) x62))))
(assert (not (and (and (and (= x79 (x149 x143 x143)) (= x5 (x149 x79 x79))) (= x62 (x149 x143 x5))) (= x103 (x149 x143 x62)))))
(assert (not (and (= (x149 x5 x79) x143) (and (= (x149 x5 x62) x79) (and (= x62 (x149 x103 x103)) (= (x149 x5 x5) x103))))))
(assert (not (and (= (x149 x62 x103) x5) (and (and (= (x149 x79 x79) x143) (= (x149 x62 x62) x79)) (= x103 (x149 x62 x143))))))
(assert (not (and (and (= x79 (x149 x5 x143)) (and (= x143 (x149 x103 x103)) (= x103 (x149 x5 x5)))) (= x62 (x149 x5 x79)))))
(assert (not (and (and (= (x149 x103 x5) x79) (and (= x143 (x149 x103 x103)) (= x5 (x149 x143 x143)))) (= (x149 x103 x79) x62))))
(assert (not (and (and (= (x149 x143 x103) x62) (and (= x5 (x149 x143 x143)) (= x103 (x149 x5 x5)))) (= (x149 x143 x62) x79))))
(assert (not (and (= (x149 x62 x103) x5) (and (and (= (x149 x143 x143) x79) (= x143 (x149 x62 x62))) (= x103 (x149 x62 x79))))))
(assert (not (and (and (and (= (x149 x62 x62) x143) (= x62 (x149 x5 x5))) (= (x149 x5 x143) x103)) (= x79 (x149 x5 x103)))))
(assert (not (and (and (and (= x5 (x149 x103 x103)) (= (x149 x5 x5) x62)) (= x143 (x149 x103 x62))) (= (x149 x103 x143) x79))))
(assert (not (and (and (and (= (x149 x62 x62) x143) (= (x149 x5 x5) x62)) (= (x149 x5 x143) x79)) (= x103 (x149 x5 x79)))))
(assert (not (and (and (= x62 (x149 x143 x5)) (and (= (x149 x143 x143) x103) (= (x149 x103 x103) x5))) (= x79 (x149 x143 x62)))))
(assert (not (and (= x103 (x149 x143 x5)) (and (and (= (x149 x79 x79) x62) (= (x149 x143 x143) x79)) (= (x149 x143 x62) x5)))))
(assert (not (and (= x143 (x149 x5 x62)) (and (= (x149 x5 x79) x62) (and (= x103 (x149 x5 x5)) (= (x149 x103 x103) x79))))))
(assert (not (and (and (and (= (x149 x79 x79) x143) (= (x149 x143 x143) x62)) (= x5 (x149 x79 x62))) (= x103 (x149 x79 x5)))))
(assert (not (and (and (= x5 (x149 x62 x103)) (and (= x79 (x149 x62 x62)) (= x103 (x149 x79 x79)))) (= (x149 x62 x5) x143))))
(assert (not (and (and (= x5 (x149 x79 x143)) (and (= x143 (x149 x103 x103)) (= x103 (x149 x79 x79)))) (= (x149 x79 x5) x62))))
(assert (not (and (= x79 (x149 x5 x143)) (and (= (x149 x5 x103) x143) (and (= x103 (x149 x62 x62)) (= x62 (x149 x5 x5)))))))
(assert (not (and (= x143 (x149 x103 x5)) (and (and (= (x149 x79 x79) x62) (= (x149 x103 x103) x79)) (= x5 (x149 x103 x62))))))
(assert (not (and (= x5 (x149 x103 x143)) (and (= (x149 x103 x62) x143) (and (= x62 (x149 x79 x79)) (= (x149 x103 x103) x79))))))
(assert (not (and (and (and (= x103 (x149 x79 x79)) (= (x149 x5 x5) x79)) (= (x149 x5 x103) x62)) (= x143 (x149 x5 x62)))))
(assert (not (and (and (= x103 (x149 x5 x62)) (and (= x143 (x149 x5 x5)) (= x62 (x149 x143 x143)))) (= (x149 x5 x103) x79))))
(assert (not (and (and (and (= (x149 x79 x79) x103) (= x79 (x149 x62 x62))) (= (x149 x62 x103) x143)) (= (x149 x62 x143) x5))))
(assert (let ((x14 (x149 x79 x79)) (x24 (x149 x5 x5)) (x83 (x149 x103 x103)) (x155 (x149 x143 x143)) (x153 (x149 x62 x62))) (or (and (not (= x5 x24)) (and (not (= x14 x5)) (and (and (not (= x153 x5)) (not (= x5 x155))) (not (= x5 x83))))) (or (or (and (not (= x103 x24)) (and (and (and (not (= x103 x153)) (not (= x155 x103))) (not (= x103 x83))) (not (= x103 x14)))) (or (and (not (= x24 x143)) (and (and (not (= x83 x143)) (and (not (= x155 x143)) (not (= x143 x153)))) (not (= x14 x143)))) (and (and (and (not (= x62 x83)) (and (not (= x62 x153)) (not (= x155 x62)))) (not (= x14 x62))) (not (= x62 x24))))) (and (not (= x79 x24)) (and (not (= x14 x79)) (and (not (= x79 x83)) (and (not (= x153 x79)) (not (= x79 x155))))))))))
(assert (not (and (= (x149 x79 x62) x5) (and (= (x149 x79 x103) x62) (and (= (x149 x79 x79) x143) (= (x149 x143 x143) x103))))))
(assert (not (and (and (= x5 (x149 x62 x79)) (and (= x103 (x149 x62 x62)) (= x79 (x149 x103 x103)))) (= x143 (x149 x62 x5)))))
(assert (not (and (= x79 (x149 x62 x5)) (and (= x5 (x149 x62 x143)) (and (= x103 (x149 x62 x62)) (= (x149 x103 x103) x143))))))
(assert (not (and (= x62 (x149 x79 x143)) (and (= (x149 x79 x5) x143) (and (= (x149 x79 x79) x103) (= x5 (x149 x103 x103)))))))
(assert (not (and (= x5 (x149 x143 x79)) (and (and (= (x149 x62 x62) x103) (= x62 (x149 x143 x143))) (= x79 (x149 x143 x103))))))
(assert (not (and (and (and (= (x149 x143 x143) x5) (= (x149 x62 x62) x143)) (= x79 (x149 x62 x5))) (= x103 (x149 x62 x79)))))
(assert (not (and (= x143 (x149 x79 x5)) (and (= (x149 x79 x103) x5) (and (= (x149 x79 x79) x62) (= x103 (x149 x62 x62)))))))
(assert (not (and (and (= x5 (x149 x62 x143)) (and (= x79 (x149 x62 x62)) (= x143 (x149 x79 x79)))) (= x103 (x149 x62 x5)))))
(assert (not (and (and (and (= (x149 x103 x103) x62) (= (x149 x62 x62) x79)) (= x143 (x149 x103 x79))) (= (x149 x103 x143) x5))))
(assert (not (and (and (and (= x5 (x149 x62 x62)) (= x62 (x149 x143 x143))) (= (x149 x143 x5) x79)) (= (x149 x143 x79) x103))))
(assert (let ((x92 (x149 x143 x103)) (x51 (x149 x103 x143)) (x147 (= x5 (x149 x5 x5))) (x78 (x149 x62 x79)) (x27 (x149 x5 x143)) (x58 (x149 x143 x5)) (x14 (= x143 (x149 x143 x143))) (x82 (x149 x62 x103)) (x106 (x149 x143 x79)) (x153 (= x62 (x149 x62 x62))) (x113 (x149 x103 x79)) (x6 (x149 x5 x103)) (x36 (x149 x79 x143)) (x29 (= x103 (x149 x103 x103))) (x112 (x149 x5 x62)) (x83 (x149 x62 x143)) (x140 (x149 x79 x103)) (x154 (x149 x103 x5)) (x12 (x149 x5 x79)) (x61 (x149 x62 x5)) (x24 (x149 x103 x62)) (x132 (x149 x79 x5)) (x146 (x149 x79 x62)) (x155 (x149 x143 x62)) (x43 (= (x149 x79 x79) x79))) (or (or (or (or (and (= x6 x5) (= x154 x5)) (or (and (= x5 x112) (= x61 x5)) (and (= x27 x5) (= x5 x58)))) (and (= x132 x5) (= x5 x12))) (and x147 x147)) (or (or (and (= x79 x12) (= x132 x79)) (or (or (or (and (= x36 x79) (= x79 x106)) (and (= x79 x78) (= x79 x146))) (and (= x113 x79) (= x79 x140))) (and x43 x43))) (or (or (and (= x154 x103) (= x103 x6)) (or (or (or (and (= x103 x24) (= x103 x82)) (and (= x103 x51) (= x103 x92))) (and x29 x29)) (and (= x103 x113) (= x103 x140)))) (or (or (or (or (or (and (= x62 x83) (= x155 x62)) (and x153 x153)) (and (= x82 x62) (= x24 x62))) (and (= x146 x62) (= x78 x62))) (and (= x62 x61) (= x62 x112))) (or (and (= x27 x143) (= x143 x58)) (or (and (= x143 x36) (= x143 x106)) (or (or (and x14 x14) (and (= x143 x83) (= x143 x155))) (and (= x143 x51) (= x143 x92)))))))))))
(assert (not (and (and (= x62 (x149 x143 x79)) (and (= x79 (x149 x103 x103)) (= (x149 x143 x143) x103))) (= (x149 x143 x62) x5))))
(assert (not (and (= (x149 x103 x5) x143) (and (and (= x79 (x149 x62 x62)) (= (x149 x103 x103) x62)) (= x5 (x149 x103 x79))))))
(assert (not (and (and (and (= x62 (x149 x79 x79)) (= x143 (x149 x62 x62))) (= x5 (x149 x79 x143))) (= x103 (x149 x79 x5)))))
(assert (not (and (and (and (= (x149 x143 x143) x5) (= (x149 x5 x5) x79)) (= (x149 x143 x79) x103)) (= x62 (x149 x143 x103)))))
(assert (not (and (= x143 (x149 x5 x103)) (and (= (x149 x5 x79) x103) (and (= x62 (x149 x5 x5)) (= (x149 x62 x62) x79))))))
(assert (not (and (= (x149 x103 x5) x79) (and (and (= x62 (x149 x103 x103)) (= x143 (x149 x62 x62))) (= x5 (x149 x103 x143))))))
(assert (not (and (= x5 (x149 x143 x62)) (and (and (= x103 (x149 x79 x79)) (= x79 (x149 x143 x143))) (= (x149 x143 x103) x62)))))
(assert (not (and (and (and (= (x149 x143 x143) x79) (= x103 (x149 x79 x79))) (= x5 (x149 x143 x103))) (= (x149 x143 x5) x62))))
(assert (not (and (= (x149 x62 x5) x103) (and (and (= x143 (x149 x62 x62)) (= x79 (x149 x143 x143))) (= (x149 x62 x79) x5)))))
(assert (not (and (and (= (x149 x62 x5) x143) (and (= (x149 x62 x62) x79) (= (x149 x79 x79) x5))) (= x103 (x149 x62 x143)))))
(assert (not (and (= x143 (x149 x79 x103)) (and (= x103 (x149 x79 x62)) (and (= x62 (x149 x5 x5)) (= (x149 x79 x79) x5))))))
(assert (not (and (and (and (= (x149 x143 x143) x62) (= x103 (x149 x62 x62))) (= x5 (x149 x143 x103))) (= (x149 x143 x5) x79))))
(assert (not (and (= x5 (x149 x79 x103)) (and (and (= (x149 x143 x143) x62) (= (x149 x79 x79) x143)) (= (x149 x79 x62) x103)))))
(assert (not (and (and (and (= x79 (x149 x103 x103)) (= x103 (x149 x62 x62))) (= (x149 x62 x79) x143)) (= (x149 x62 x143) x5))))
(assert (let ((x154 (x149 x143 x5)) (x96 (x149 x5 x143)) (x57 (x149 x5 x79)) (x30 (x149 x5 x5)) (x24 (x149 x62 x79)) (x82 (x149 x62 x5)) (x55 (x149 x103 x103)) (x29 (x149 x103 x62)) (x83 (x149 x62 x143)) (x58 (x149 x143 x103)) (x155 (x149 x62 x62)) (x6 (x149 x143 x79)) (x14 (x149 x62 x103)) (x146 (x149 x79 x62)) (x60 (x149 x79 x79)) (x115 (x149 x79 x5)) (x70 (x149 x79 x103)) (x105 (x149 x5 x103)) (x138 (x149 x103 x5)) (x92 (x149 x143 x62)) (x78 (x149 x5 x62)) (x93 (x149 x79 x143)) (x27 (x149 x143 x143)) (x101 (x149 x103 x79)) (x147 (x149 x103 x143))) (let ((x136 (= x79 x27)) (x125 (= x5 x101)) (x38 (= x79 x55)) (x120 (= x5 x83)) (x43 (= x83 x62)) (x110 (= x78 x5)) (x34 (= x154 x103)) (x122 (= x62 x58)) (x86 (= x29 x103)) (x144 (= x93 x62)) (x116 (= x154 x79)) (x7 (= x143 x30)) (x54 (= x62 x115)) (x94 (= x138 x103)) (x108 (= x146 x143)) (x16 (= x79 x58)) (x50 (= x79 x101)) (x25 (= x79 x105)) (x9 (= x5 x60)) (x75 (= x103 x115)) (x64 (= x143 x60)) (x33 (= x143 x55)) (x150 (= x5 x6)) (x104 (= x79 x138)) (x47 (= x58 x143)) (x131 (= x101 x143)) (x77 (= x143 x57)) (x117 (= x143 x154)) (x126 (= x6 x103)) (x132 (= x27 x143)) (x10 (= x24 x62)) (x85 (= x138 x62)) (x8 (= x103 x27)) (x133 (= x6 x79)) (x71 (= x93 x79)) (x74 (= x82 x79)) (x158 (= x147 x5)) (x52 (= x62 x70)) (x76 (= x14 x62)) (x111 (= x143 x105)) (x65 (= x101 x62)) (x139 (= x115 x143)) (x153 (= x62 x155)) (x127 (= x96 x143)) (x67 (= x115 x5)) (x129 (= x82 x143)) (x137 (= x62 x30)) (x48 (= x62 x29)) (x17 (= x79 x147)) (x141 (= x96 x5)) (x90 (= x58 x5)) (x119 (= x143 x138)) (x44 (= x103 x14)) (x68 (= x55 x5)) (x56 (= x103 x70)) (x32 (= x60 x103)) (x2 (= x79 x60)) (x113 (= x92 x62)) (x53 (= x79 x24)) (x26 (= x101 x103)) (x112 (= x27 x62)) (x46 (= x105 x62)) (x102 (= x58 x103)) (x20 (= x78 x143)) (x37 (= x147 x62)) (x22 (= x83 x103)) (x59 (= x62 x60)) (x81 (= x93 x103)) (x36 (= x155 x103)) (x123 (= x154 x5)) (x148 (= x14 x5)) (x142 (= x79 x30)) (x106 (= x79 x155)) (x39 (= x24 x103)) (x100 (= x62 x78)) (x135 (= x146 x79)) (x130 (= x103 x96)) (x40 (= x57 x62)) (x12 (= x143 x83)) (x134 (= x62 x6)) (x89 (= x93 x143)) (x73 (= x79 x70)) (x145 (= x103 x92)) (x19 (= x103 x146)) (x18 (= x96 x79)) (x4 (= x70 x5)) (x140 (= x5 x155)) (x69 (= x62 x96)) (x98 (= x5 x146)) (x80 (= x57 x103)) (x157 (= x5 x138)) (x151 (= x79 x78)) (x84 (= x143 x147)) (x118 (= x103 x82)) (x107 (= x29 x143)) (x114 (= x55 x62)) (x97 (= x82 x5)) (x66 (= x14 x143)) (x95 (= x29 x79)) (x51 (= x143 x155)) (x91 (= x154 x62)) (x72 (= x14 x79)) (x88 (= x5 x92)) (x28 (= x62 x82)) (x124 (= x55 x103)) (x128 (= x5 x93)) (x21 (= x143 x70)) (x152 (= x24 x143)) (x1 (= x57 x79)) (x11 (= x5 x30)) (x23 (= x5 x57)) (x156 (= x30 x103)) (x35 (= x79 x92)) (x45 (= x103 x78)) (x109 (= x103 x105)) (x49 (= x79 x115)) (x61 (= x143 x92)) (x42 (= x147 x103)) (x3 (= x27 x5)) (x99 (= x5 x105)) (x31 (= x29 x5)) (x121 (= x62 x146)) (x15 (= x24 x5)) (x63 (= x6 x143)) (x13 (= x83 x79))) (and (and (and (and (and (and (and (or (or (or x95 (or x35 x106)) x135) x151) (or (or (or x72 (or x13 x106)) x53) x74)) (and (and (or (or x39 (or (or x22 x36) x44)) x118) (or (or x19 (or (or x36 x145) x86)) x45)) (and (and (or x129 (or x152 (or (or x51 x12) x66))) (or (or (or (or x51 x61) x107) x108) x20)) (and (or (or x121 (or x48 (or x113 x153))) x100) (or (or x10 (or (or x43 x153) x76)) x28))))) (and (or (or (or x148 (or x140 x120)) x15) x97) (or (or x98 (or (or x88 x140) x31)) x110))) (and (and (or (or x150 (or x90 (or x3 x88))) x123) (or (or (or (or x120 x3) x158) x128) x141)) (and (and (and (or (or x81 (or (or x8 x22) x42)) x130) (or (or (or (or x8 x145) x102) x126) x34)) (and (and (or (or (or x37 (or x43 x112)) x144) x69) (or (or (or x122 (or x113 x112)) x134) x91)) (and (or x117 (or x63 (or x47 (or x132 x61)))) (or x127 (or (or x84 (or x132 x12)) x89))))) (and (or x116 (or x133 (or (or x35 x136) x16))) (or x18 (or (or (or x136 x13) x17) x71)))))) (and (and (or (or (or x68 (or x90 x148)) x4) x99) (or (or x125 (or (or x158 x31) x68)) x157)) (and (and (and (and (or (or x21 (or (or x66 x47) x33)) x111) (or (or (or x33 (or x107 x84)) x131) x119)) (and (or x46 (or (or (or x76 x122) x114) x52)) (or (or (or (or x37 x48) x114) x65) x85))) (and (or x94 (or (or (or x42 x86) x124) x26)) (or (or x56 (or (or x44 x102) x124)) x109))) (and (or (or (or (or x72 x16) x38) x73) x25) (or (or (or x38 (or x95 x17)) x50) x104))))) (and (and (or (or (or x4 (or x128 x98)) x9) x67) (or x23 (or x9 (or (or x15 x150) x125)))) (and (and (and (or x75 (or x32 (or x56 (or x81 x19)))) (or (or (or x26 (or x39 x126)) x32) x80)) (and (and (or x139 (or x64 (or (or x108 x89) x21))) (or (or x64 (or x131 (or x63 x152))) x77)) (and (or x54 (or x59 (or x52 (or x121 x144)))) (or x40 (or (or x65 (or x10 x134)) x59))))) (and (or (or (or x73 (or x71 x135)) x2) x49) (or x1 (or x2 (or x50 (or x53 x133)))))))) (and (and (or x11 (or (or (or x123 x97) x157) x67)) (or x11 (or x23 (or (or x110 x141) x99)))) (and (and (or (or (or (or x151 x18) x25) x1) x142) (or x142 (or x49 (or (or x74 x116) x104)))) (and (and (or x156 (or (or (or x34 x118) x94) x75)) (or (or (or (or x130 x45) x109) x80) x156)) (and (and (or x137 (or (or (or x28 x91) x85) x54)) (or x137 (or (or x46 (or x69 x100)) x40))) (and (or (or (or (or x117 x129) x119) x139) x7) (or (or x77 (or x111 (or x20 x127))) x7))))))))))
(assert (not (and (= x5 (x149 x103 x79)) (and (and (= (x149 x143 x143) x62) (= (x149 x103 x103) x143)) (= x79 (x149 x103 x62))))))
(assert (not (and (and (= (x149 x103 x62) x5) (and (= x143 (x149 x103 x103)) (= x62 (x149 x143 x143)))) (= (x149 x103 x5) x79))))
(assert (not (and (= x62 (x149 x5 x79)) (and (= (x149 x5 x103) x79) (and (= (x149 x5 x5) x143) (= x103 (x149 x143 x143)))))))
(assert (not (and (= x103 (x149 x79 x62)) (and (= x62 (x149 x79 x5)) (and (= x5 (x149 x143 x143)) (= x143 (x149 x79 x79)))))))
(assert (not (and (= x143 (x149 x103 x79)) (and (and (= (x149 x103 x103) x5) (= x62 (x149 x5 x5))) (= (x149 x103 x62) x79)))))
(assert (not (and (= x5 (x149 x103 x79)) (and (= x79 (x149 x103 x143)) (and (= x62 (x149 x103 x103)) (= (x149 x62 x62) x143))))))
(assert (not (and (and (and (= x143 (x149 x5 x5)) (= (x149 x143 x143) x79)) (= (x149 x5 x79) x103)) (= x62 (x149 x5 x103)))))
(assert (not (and (= (x149 x79 x62) x143) (and (and (= x103 (x149 x79 x79)) (= x5 (x149 x103 x103))) (= (x149 x79 x5) x62)))))
(assert (and (or (= x5 (x149 x5 (x149 x5 x5))) (or (or (= (x149 x5 (x149 x5 x103)) x103) (or (= x143 (x149 x5 (x149 x5 x143))) (= x62 (x149 x5 (x149 x5 x62))))) (= (x149 x5 (x149 x5 x79)) x79))) (and (and (or (= x5 (x149 x103 (x149 x103 x5))) (or (or (= x103 (x149 x103 (x149 x103 x103))) (or (= x62 (x149 x103 (x149 x103 x62))) (= x143 (x149 x103 (x149 x103 x143))))) (= (x149 x103 (x149 x103 x79)) x79))) (and (or (= x5 (x149 x143 (x149 x143 x5))) (or (or (= (x149 x143 (x149 x143 x103)) x103) (or (= x143 (x149 x143 (x149 x143 x143))) (= (x149 x143 (x149 x143 x62)) x62))) (= (x149 x143 (x149 x143 x79)) x79))) (or (= (x149 x62 (x149 x62 x5)) x5) (or (or (or (= x62 (x149 x62 (x149 x62 x62))) (= x143 (x149 x62 (x149 x62 x143)))) (= x103 (x149 x62 (x149 x62 x103)))) (= (x149 x62 (x149 x62 x79)) x79))))) (or (= x5 (x149 x79 (x149 x79 x5))) (or (or (= (x149 x79 (x149 x79 x103)) x103) (or (= x62 (x149 x79 (x149 x79 x62))) (= x143 (x149 x79 (x149 x79 x143))))) (= x79 (x149 x79 (x149 x79 x79))))))))
(assert (not (and (= (x149 x5 x143) x103) (and (= x143 (x149 x5 x79)) (and (= x79 (x149 x62 x62)) (= (x149 x5 x5) x62))))))
(assert (not (and (= (x149 x5 x143) x62) (and (= x143 (x149 x5 x79)) (and (= (x149 x103 x103) x79) (= x103 (x149 x5 x5)))))))
(assert (not (and (and (= x5 (x149 x62 x103)) (and (= (x149 x62 x62) x143) (= (x149 x143 x143) x103))) (= (x149 x62 x5) x79))))
(check-sat)
(exit)
